computational_data/real_data/solutions/wdbc_trial_005_margin.sol
Optimal - objective value 106.00630100
      1 c_1                         1                       1
      2 c_2                         1                       1
      3 c_3                         1                       1
      4 c_4                         1                       1
      5 c_5                         1                       1
      6 c_6                         1                       1
      7 c_7                         1                       1
      8 c_8                         1                       1
      9 c_9                         1                       1
     10 c_10                        1                       1
     11 c_11                        1                       1
     12 c_12                        1                       1
     13 c_13                        1                       1
     14 c_14                        1                       1
     15 c_15                        1                       1
     16 c_16                        1                       1
     17 c_17                        1                       1
     18 c_18                        1                       1
     19 c_19                        1                       1
     20 c_20                        1                       1
     21 c_21                        1                       1
     22 c_22                        1                       1
     23 c_23                        1                       1
     24 c_24                        1                       1
     25 c_25                        1                       1
     26 c_26                        1                       1
     27 c_27                        1                       1
     28 c_28                        1                       1
     29 c_29                        1                       1
     30 c_30                        1                       1
     31 c_31                        1                       1
     32 c_32                        1                       1
     33 c_33                        1                       1
     34 c_34                        1                       1
     35 c_35                        1                       1
     36 c_36                        1                       1
     37 c_37                        1                       1
     38 c_38                        1                       1
     39 c_39                        1                       1
     40 c_40                        1                       1
     41 c_41                        1                       1
     42 c_42                        1                       1
     43 c_43                        1                       1
     45 c_45                        1                       1
     46 c_46                        1                       1
     47 c_47                        1                       1
     48 c_48                        1                       1
     49 c_49                        1                       1
     50 c_50                        1                       1
     51 c_51                        1                       1
     52 c_52                        1                       1
     54 c_54                        1                       1
     55 c_55                        1                       1
     56 c_56                        1                       1
     57 c_57                        1                       1
     59 c_59                        1                       1
     60 c_60                        1                       1
     61 c_61                        1                       1
     62 c_62                        1                       1
     63 c_63                        1                       1
     64 c_64                        1                       1
     65 c_65                        1                       1
     66 c_66                        1                       1
     67 c_67                        1                       1
     68 c_68                        1                       1
     69 c_69                        1                       1
     70 c_70                        1                       1
     71 c_71                        1                       1
     72 c_72                        1                       1
     73 c_73                        1                       1
     74 c_74                        1                       1
     75 c_75                        1                       1
     76 c_76                        1                       1
     77 c_77                        1                       1
     78 c_78                        1                       1
     79 c_79                        1                       1
     80 c_80                        1                       1
     81 c_81                        1                       1
     82 c_82                        1                       1
     83 c_83                        1                       1
     85 c_85                        1                       1
     86 c_86                        1                       1
     87 c_87                        1                       1
     89 c_89                        1                       1
     90 c_90                        1                       1
     91 c_91                        1                       1
     92 c_92                        1                       1
     93 c_93                        1                       1
     94 c_94                        1                       1
     95 c_95                        1                       1
     96 c_96                        1                       1
     97 c_97                        1                       1
     98 c_98                        1                       1
     99 c_99                        1                       1
    100 c_100                       1                       1
    101 c_101                       1                       1
    102 c_102                       1                       1
    103 c_103                       1                       1
    105 c_105                       1                       1
    106 c_106                       1                       1
    107 c_107                       1                       1
    108 c_108                       1                       1
    109 c_109                       1                       1
    110 c_110                       1                       1
    111 c_111                       1                       1
    112 c_112                       1                       1
    114 r_1                         1                0.000929
    120 r_7                         1                0.000912
    128 r_15                        1                0.000876
    129 b_0                         1                0.000929
    140 b_11                        1                0.000894
    142 b_13                        1                0.000885
    143 b_14                        1                0.000876
